param n = 6;
param m = 4;


param f :=
1	1500000
2	1500000
3	1500000
4	1500000
;




param co :	1	2	3	4   :=
1	6.32	6.6 	6.72	4.36
2	6.32	6.6 	6.48	3.68
3	3.68	5.76	5.92	6.32
4	4.04	5.92	4.08	6.32
5	5.76	3.68	4.04	6.72
6	5.96	4.08	3.64	6.6
;


param p :=
1	20
2	20
3	20
4	20
; 


param h :=
1	50000
2	90000
3	120000
4	65000
5	120000
6	70000
;


param ca :=
1	1000000
2	1000000
3	1000000
4	1000000

;

